70
1 0 57
2 0 51
2 1 34
3 0 40
3 1 1
3 2 59
4 0 3
4 1 19
4 2 10
4 3 3
5 0 38
5 1 27
5 2 7
5 3 4
5 4 36
6 0 50
6 1 51
6 2 35
6 3 37
6 4 50
6 5 28
7 0 37
7 1 50
7 2 21
7 3 27
7 4 20
7 5 46
7 6 38
8 0 7
8 1 10
8 2 4
8 3 22
8 4 16
8 5 3
8 6 15
8 7 6
9 0 34
9 1 58
9 2 53
9 3 18
9 4 49
9 5 16
9 6 51
9 7 35
9 8 15
10 0 14
10 1 35
10 2 30
10 3 45
10 4 48
10 5 39
10 6 32
10 7 21
10 8 36
10 9 48
11 0 46
11 1 32
11 2 33
11 3 22
11 4 21
11 5 5
11 6 52
11 7 58
11 8 6
11 9 41
11 10 57
12 0 30
12 1 29
12 2 24
12 3 46
12 4 1
12 5 56
12 6 43
12 7 36
12 8 9
12 9 26
12 10 55
12 11 10
13 0 51
13 1 29
13 2 40
13 3 41
13 4 52
13 5 7
13 6 30
13 7 14
13 8 6
13 9 38
13 10 19
13 11 33
13 12 53
14 0 57
14 1 59
14 2 5
14 3 36
14 4 58
14 5 60
14 6 58
14 7 29
14 8 22
14 9 30
14 10 18
14 11 13
14 12 25
14 13 11
15 0 41
15 1 52
15 2 9
15 3 59
15 4 4
15 5 21
15 6 47
15 7 29
15 8 32
15 9 4
15 10 2
15 11 21
15 12 5
15 13 50
15 14 7
16 0 32
16 1 58
16 2 12
16 3 15
16 4 43
16 5 4
16 6 27
16 7 2
16 8 22
16 9 6
16 10 5
16 11 14
16 12 26
16 13 6
16 14 49
16 15 31
17 0 32
17 1 2
17 2 59
17 3 22
17 4 6
17 5 36
17 6 3
17 7 6
17 8 45
17 9 54
17 10 41
17 11 55
17 12 15
17 13 1
17 14 36
17 15 16
17 16 19
18 0 7
18 1 55
18 2 50
18 3 20
18 4 15
18 5 59
18 6 14
18 7 2
18 8 19
18 9 51
18 10 54
18 11 8
18 12 45
18 13 41
18 14 6
18 15 59
18 16 32
18 17 6
19 0 42
19 1 28
19 2 18
19 3 53
19 4 17
19 5 41
19 6 60
19 7 49
19 8 55
19 9 27
19 10 40
19 11 27
19 12 19
19 13 9
19 14 17
19 15 8
19 16 28
19 17 59
19 18 40
20 0 36
20 1 53
20 2 20
20 3 59
20 4 49
20 5 59
20 6 51
20 7 14
20 8 3
20 9 25
20 10 31
20 11 49
20 12 20
20 13 7
20 14 53
20 15 1
20 16 43
20 17 42
20 18 60
20 19 13
21 0 58
21 1 9
21 2 55
21 3 46
21 4 47
21 5 8
21 6 48
21 7 15
21 8 25
21 9 26
21 10 48
21 11 18
21 12 32
21 13 2
21 14 37
21 15 16
21 16 29
21 17 14
21 18 1
21 19 26
21 20 28
22 0 33
22 1 51
22 2 38
22 3 13
22 4 22
22 5 33
22 6 18
22 7 7
22 8 39
22 9 51
22 10 20
22 11 5
22 12 7
22 13 19
22 14 38
22 15 16
22 16 39
22 17 8
22 18 38
22 19 45
22 20 60
22 21 48
23 0 36
23 1 44
23 2 52
23 3 4
23 4 30
23 5 43
23 6 59
23 7 14
23 8 28
23 9 40
23 10 53
23 11 18
23 12 19
23 13 35
23 14 21
23 15 3
23 16 46
23 17 25
23 18 49
23 19 42
23 20 8
23 21 24
23 22 4
24 0 54
24 1 32
24 2 44
24 3 14
24 4 9
24 5 18
24 6 21
24 7 49
24 8 50
24 9 46
24 10 50
24 11 7
24 12 42
24 13 41
24 14 35
24 15 31
24 16 7
24 17 4
24 18 33
24 19 23
24 20 43
24 21 7
24 22 33
24 23 34
25 0 12
25 1 36
25 2 28
25 3 37
25 4 19
25 5 38
25 6 22
25 7 29
25 8 22
25 9 6
25 10 4
25 11 9
25 12 45
25 13 47
25 14 38
25 15 20
25 16 26
25 17 15
25 18 56
25 19 29
25 20 11
25 21 46
25 22 21
25 23 32
25 24 12
26 0 5
26 1 60
26 2 9
26 3 20
26 4 42
26 5 18
26 6 28
26 7 60
26 8 50
26 9 40
26 10 36
26 11 34
26 12 37
26 13 30
26 14 21
26 15 49
26 16 42
26 17 9
26 18 51
26 19 47
26 20 42
26 21 5
26 22 8
26 23 45
26 24 5
26 25 41
27 0 2
27 1 50
27 2 11
27 3 20
27 4 31
27 5 53
27 6 50
27 7 51
27 8 41
27 9 46
27 10 29
27 11 7
27 12 55
27 13 28
27 14 53
27 15 49
27 16 56
27 17 22
27 18 58
27 19 24
27 20 44
27 21 40
27 22 55
27 23 44
27 24 31
27 25 48
27 26 7
28 0 14
28 1 28
28 2 28
28 3 21
28 4 1
28 5 35
28 6 27
28 7 9
28 8 51
28 9 8
28 10 18
28 11 29
28 12 44
28 13 22
28 14 49
28 15 2
28 16 13
28 17 35
28 18 40
28 19 52
28 20 60
28 21 44
28 22 38
28 23 7
28 24 32
28 25 2
28 26 30
28 27 54
29 0 21
29 1 22
29 2 6
29 3 60
29 4 27
29 5 30
29 6 42
29 7 35
29 8 9
29 9 9
29 10 15
29 11 8
29 12 4
29 13 40
29 14 15
29 15 29
29 16 5
29 17 55
29 18 27
29 19 33
29 20 39
29 21 20
29 22 29
29 23 2
29 24 34
29 25 29
29 26 9
29 27 23
29 28 16
30 0 28
30 1 1
30 2 46
30 3 15
30 4 9
30 5 34
30 6 35
30 7 57
30 8 53
30 9 51
30 10 6
30 11 29
30 12 19
30 13 46
30 14 13
30 15 55
30 16 23
30 17 3
30 18 1
30 19 56
30 20 40
30 21 42
30 22 11
30 23 14
30 24 39
30 25 36
30 26 11
30 27 56
30 28 28
30 29 26
31 0 31
31 1 38
31 2 30
31 3 57
31 4 4
31 5 15
31 6 27
31 7 34
31 8 48
31 9 40
31 10 3
31 11 38
31 12 32
31 13 31
31 14 39
31 15 48
31 16 33
31 17 4
31 18 59
31 19 32
31 20 19
31 21 53
31 22 4
31 23 31
31 24 31
31 25 30
31 26 59
31 27 26
31 28 3
31 29 36
31 30 10
32 0 43
32 1 55
32 2 21
32 3 11
32 4 56
32 5 6
32 6 44
32 7 9
32 8 53
32 9 43
32 10 8
32 11 37
32 12 50
32 13 6
32 14 40
32 15 8
32 16 13
32 17 44
32 18 46
32 19 60
32 20 54
32 21 9
32 22 60
32 23 4
32 24 43
32 25 54
32 26 28
32 27 17
32 28 57
32 29 44
32 30 58
32 31 39
33 0 48
33 1 12
33 2 41
33 3 35
33 4 26
33 5 25
33 6 24
33 7 52
33 8 38
33 9 52
33 10 25
33 11 53
33 12 21
33 13 6
33 14 19
33 15 31
33 16 59
33 17 14
33 18 45
33 19 10
33 20 36
33 21 9
33 22 42
33 23 30
33 24 56
33 25 56
33 26 43
33 27 17
33 28 38
33 29 6
33 30 17
33 31 59
33 32 1
34 0 32
34 1 20
34 2 13
34 3 38
34 4 9
34 5 23
34 6 17
34 7 7
34 8 42
34 9 1
34 10 9
34 11 1
34 12 19
34 13 35
34 14 49
34 15 59
34 16 46
34 17 11
34 18 51
34 19 17
34 20 19
34 21 43
34 22 33
34 23 25
34 24 47
34 25 10
34 26 56
34 27 23
34 28 10
34 29 35
34 30 40
34 31 2
34 32 3
34 33 23
35 0 26
35 1 23
35 2 28
35 3 57
35 4 39
35 5 47
35 6 60
35 7 47
35 8 10
35 9 30
35 10 22
35 11 19
35 12 36
35 13 57
35 14 42
35 15 32
35 16 29
35 17 42
35 18 21
35 19 54
35 20 5
35 21 60
35 22 40
35 23 3
35 24 53
35 25 26
35 26 32
35 27 30
35 28 59
35 29 53
35 30 14
35 31 11
35 32 49
35 33 3
35 34 57
36 0 34
36 1 3
36 2 7
36 3 16
36 4 48
36 5 30
36 6 18
36 7 10
36 8 58
36 9 29
36 10 24
36 11 32
36 12 30
36 13 56
36 14 35
36 15 3
36 16 14
36 17 5
36 18 3
36 19 14
36 20 47
36 21 46
36 22 14
36 23 47
36 24 16
36 25 28
36 26 47
36 27 22
36 28 14
36 29 37
36 30 28
36 31 60
36 32 40
36 33 59
36 34 32
36 35 8
37 0 17
37 1 1
37 2 33
37 3 19
37 4 32
37 5 31
37 6 31
37 7 10
37 8 54
37 9 53
37 10 35
37 11 47
37 12 40
37 13 4
37 14 16
37 15 58
37 16 54
37 17 43
37 18 20
37 19 52
37 20 35
37 21 17
37 22 4
37 23 56
37 24 11
37 25 7
37 26 48
37 27 17
37 28 42
37 29 36
37 30 17
37 31 47
37 32 34
37 33 12
37 34 59
37 35 30
37 36 22
38 0 33
38 1 60
38 2 29
38 3 37
38 4 21
38 5 9
38 6 52
38 7 3
38 8 30
38 9 40
38 10 34
38 11 56
38 12 42
38 13 21
38 14 32
38 15 30
38 16 36
38 17 7
38 18 59
38 19 34
38 20 3
38 21 31
38 22 6
38 23 56
38 24 15
38 25 24
38 26 19
38 27 53
38 28 36
38 29 48
38 30 52
38 31 12
38 32 43
38 33 6
38 34 36
38 35 25
38 36 56
38 37 27
39 0 55
39 1 4
39 2 11
39 3 30
39 4 24
39 5 21
39 6 58
39 7 50
39 8 44
39 9 22
39 10 4
39 11 13
39 12 34
39 13 55
39 14 5
39 15 14
39 16 47
39 17 23
39 18 48
39 19 32
39 20 12
39 21 22
39 22 15
39 23 38
39 24 31
39 25 59
39 26 45
39 27 24
39 28 21
39 29 57
39 30 22
39 31 16
39 32 20
39 33 4
39 34 38
39 35 6
39 36 54
39 37 25
39 38 25
40 0 11
40 1 1
40 2 44
40 3 9
40 4 29
40 5 9
40 6 29
40 7 5
40 8 38
40 9 8
40 10 45
40 11 4
40 12 55
40 13 39
40 14 56
40 15 4
40 16 24
40 17 49
40 18 49
40 19 28
40 20 48
40 21 40
40 22 39
40 23 49
40 24 56
40 25 41
40 26 3
40 27 35
40 28 50
40 29 55
40 30 9
40 31 3
40 32 34
40 33 58
40 34 12
40 35 36
40 36 50
40 37 1
40 38 16
40 39 37
41 0 23
41 1 48
41 2 17
41 3 13
41 4 17
41 5 4
41 6 10
41 7 12
41 8 12
41 9 53
41 10 50
41 11 8
41 12 23
41 13 1
41 14 32
41 15 22
41 16 12
41 17 5
41 18 30
41 19 15
41 20 57
41 21 13
41 22 12
41 23 21
41 24 48
41 25 33
41 26 24
41 27 47
41 28 45
41 29 38
41 30 53
41 31 22
41 32 4
41 33 44
41 34 43
41 35 10
41 36 41
41 37 22
41 38 14
41 39 33
41 40 17
42 0 54
42 1 7
42 2 52
42 3 20
42 4 46
42 5 14
42 6 21
42 7 9
42 8 37
42 9 23
42 10 52
42 11 35
42 12 47
42 13 46
42 14 41
42 15 16
42 16 33
42 17 52
42 18 12
42 19 21
42 20 8
42 21 26
42 22 29
42 23 2
42 24 31
42 25 11
42 26 4
42 27 29
42 28 31
42 29 50
42 30 5
42 31 55
42 32 39
42 33 37
42 34 5
42 35 53
42 36 37
42 37 52
42 38 50
42 39 9
42 40 44
42 41 58
43 0 2
43 1 34
43 2 20
43 3 27
43 4 42
43 5 49
43 6 2
43 7 57
43 8 45
43 9 10
43 10 40
43 11 28
43 12 60
43 13 20
43 14 51
43 15 4
43 16 33
43 17 15
43 18 48
43 19 2
43 20 15
43 21 16
43 22 45
43 23 3
43 24 50
43 25 7
43 26 1
43 27 53
43 28 59
43 29 41
43 30 43
43 31 45
43 32 6
43 33 23
43 34 38
43 35 17
43 36 47
43 37 42
43 38 39
43 39 43
43 40 15
43 41 6
43 42 47
44 0 53
44 1 18
44 2 38
44 3 53
44 4 59
44 5 18
44 6 37
44 7 19
44 8 13
44 9 25
44 10 23
44 11 16
44 12 48
44 13 16
44 14 59
44 15 32
44 16 4
44 17 27
44 18 19
44 19 60
44 20 25
44 21 38
44 22 5
44 23 57
44 24 29
44 25 24
44 26 26
44 27 6
44 28 49
44 29 49
44 30 21
44 31 55
44 32 47
44 33 27
44 34 7
44 35 42
44 36 38
44 37 22
44 38 15
44 39 22
44 40 58
44 41 17
44 42 60
44 43 55
45 0 50
45 1 3
45 2 8
45 3 17
45 4 21
45 5 48
45 6 33
45 7 36
45 8 40
45 9 46
45 10 8
45 11 27
45 12 30
45 13 33
45 14 44
45 15 32
45 16 31
45 17 14
45 18 18
45 19 45
45 20 26
45 21 37
45 22 22
45 23 39
45 24 44
45 25 34
45 26 41
45 27 49
45 28 1
45 29 16
45 30 32
45 31 38
45 32 35
45 33 43
45 34 53
45 35 21
45 36 46
45 37 57
45 38 48
45 39 34
45 40 12
45 41 38
45 42 24
45 43 35
45 44 49
46 0 9
46 1 26
46 2 59
46 3 25
46 4 22
46 5 22
46 6 35
46 7 7
46 8 31
46 9 18
46 10 47
46 11 53
46 12 57
46 13 18
46 14 34
46 15 7
46 16 52
46 17 56
46 18 51
46 19 54
46 20 6
46 21 5
46 22 8
46 23 24
46 24 31
46 25 14
46 26 21
46 27 32
46 28 47
46 29 60
46 30 33
46 31 54
46 32 27
46 33 21
46 34 42
46 35 33
46 36 39
46 37 2
46 38 49
46 39 8
46 40 48
46 41 5
46 42 19
46 43 33
46 44 9
46 45 11
47 0 56
47 1 56
47 2 9
47 3 37
47 4 1
47 5 54
47 6 44
47 7 59
47 8 51
47 9 11
47 10 15
47 11 43
47 12 13
47 13 60
47 14 33
47 15 12
47 16 37
47 17 7
47 18 25
47 19 12
47 20 37
47 21 9
47 22 21
47 23 39
47 24 18
47 25 37
47 26 26
47 27 1
47 28 55
47 29 53
47 30 51
47 31 2
47 32 3
47 33 60
47 34 8
47 35 22
47 36 56
47 37 57
47 38 18
47 39 15
47 40 51
47 41 54
47 42 28
47 43 41
47 44 38
47 45 35
47 46 32
48 0 24
48 1 37
48 2 37
48 3 11
48 4 34
48 5 45
48 6 36
48 7 6
48 8 21
48 9 46
48 10 26
48 11 9
48 12 25
48 13 13
48 14 41
48 15 7
48 16 8
48 17 15
48 18 33
48 19 9
48 20 14
48 21 9
48 22 27
48 23 59
48 24 47
48 25 5
48 26 3
48 27 23
48 28 6
48 29 43
48 30 53
48 31 53
48 32 56
48 33 16
48 34 15
48 35 25
48 36 42
48 37 36
48 38 24
48 39 15
48 40 1
48 41 12
48 42 10
48 43 47
48 44 34
48 45 10
48 46 18
48 47 50
49 0 9
49 1 31
49 2 32
49 3 18
49 4 26
49 5 26
49 6 53
49 7 52
49 8 37
49 9 28
49 10 46
49 11 36
49 12 18
49 13 37
49 14 57
49 15 50
49 16 3
49 17 39
49 18 28
49 19 43
49 20 31
49 21 30
49 22 57
49 23 15
49 24 7
49 25 18
49 26 59
49 27 48
49 28 37
49 29 27
49 30 30
49 31 8
49 32 7
49 33 52
49 34 24
49 35 49
49 36 18
49 37 7
49 38 38
49 39 24
49 40 56
49 41 19
49 42 41
49 43 30
49 44 58
49 45 55
49 46 16
49 47 1
49 48 48
50 0 36
50 1 15
50 2 5
50 3 27
50 4 9
50 5 34
50 6 8
50 7 41
50 8 51
50 9 30
50 10 34
50 11 29
50 12 54
50 13 26
50 14 47
50 15 20
50 16 46
50 17 5
50 18 32
50 19 7
50 20 32
50 21 53
50 22 45
50 23 48
50 24 43
50 25 56
50 26 33
50 27 57
50 28 2
50 29 36
50 30 56
50 31 56
50 32 4
50 33 57
50 34 16
50 35 24
50 36 53
50 37 20
50 38 50
50 39 9
50 40 9
50 41 47
50 42 49
50 43 44
50 44 54
50 45 29
50 46 37
50 47 12
50 48 33
50 49 55
51 0 13
51 1 5
51 2 26
51 3 36
51 4 16
51 5 14
51 6 60
51 7 56
51 8 53
51 9 15
51 10 39
51 11 57
51 12 19
51 13 48
51 14 33
51 15 19
51 16 10
51 17 35
51 18 11
51 19 1
51 20 38
51 21 18
51 22 21
51 23 9
51 24 6
51 25 30
51 26 47
51 27 12
51 28 51
51 29 16
51 30 45
51 31 27
51 32 1
51 33 12
51 34 21
51 35 21
51 36 48
51 37 1
51 38 5
51 39 24
51 40 32
51 41 55
51 42 7
51 43 23
51 44 33
51 45 17
51 46 33
51 47 16
51 48 18
51 49 30
51 50 1
52 0 59
52 1 37
52 2 9
52 3 58
52 4 9
52 5 7
52 6 27
52 7 14
52 8 14
52 9 39
52 10 59
52 11 38
52 12 28
52 13 54
52 14 10
52 15 3
52 16 15
52 17 11
52 18 38
52 19 52
52 20 11
52 21 58
52 22 54
52 23 51
52 24 4
52 25 4
52 26 40
52 27 53
52 28 51
52 29 8
52 30 49
52 31 17
52 32 6
52 33 59
52 34 52
52 35 13
52 36 27
52 37 9
52 38 34
52 39 43
52 40 8
52 41 21
52 42 42
52 43 28
52 44 50
52 45 58
52 46 18
52 47 54
52 48 55
52 49 36
52 50 11
52 51 44
53 0 14
53 1 25
53 2 1
53 3 41
53 4 2
53 5 48
53 6 37
53 7 11
53 8 13
53 9 33
53 10 13
53 11 11
53 12 39
53 13 30
53 14 41
53 15 26
53 16 41
53 17 29
53 18 12
53 19 54
53 20 26
53 21 1
53 22 34
53 23 3
53 24 23
53 25 57
53 26 28
53 27 19
53 28 15
53 29 3
53 30 15
53 31 50
53 32 26
53 33 18
53 34 48
53 35 25
53 36 9
53 37 32
53 38 58
53 39 13
53 40 26
53 41 13
53 42 24
53 43 40
53 44 12
53 45 55
53 46 48
53 47 28
53 48 30
53 49 48
53 50 50
53 51 58
53 52 22
54 0 47
54 1 23
54 2 1
54 3 52
54 4 34
54 5 55
54 6 7
54 7 27
54 8 38
54 9 51
54 10 35
54 11 33
54 12 40
54 13 28
54 14 3
54 15 5
54 16 18
54 17 44
54 18 22
54 19 23
54 20 60
54 21 58
54 22 48
54 23 33
54 24 23
54 25 16
54 26 8
54 27 17
54 28 35
54 29 6
54 30 9
54 31 55
54 32 13
54 33 36
54 34 20
54 35 52
54 36 57
54 37 15
54 38 58
54 39 56
54 40 6
54 41 19
54 42 2
54 43 9
54 44 33
54 45 46
54 46 20
54 47 5
54 48 52
54 49 58
54 50 1
54 51 46
54 52 23
54 53 15
55 0 13
55 1 38
55 2 48
55 3 55
55 4 36
55 5 14
55 6 33
55 7 38
55 8 2
55 9 39
55 10 50
55 11 6
55 12 38
55 13 38
55 14 1
55 15 20
55 16 48
55 17 6
55 18 8
55 19 11
55 20 17
55 21 29
55 22 26
55 23 57
55 24 5
55 25 60
55 26 4
55 27 40
55 28 54
55 29 56
55 30 52
55 31 18
55 32 28
55 33 23
55 34 16
55 35 15
55 36 43
55 37 9
55 38 1
55 39 60
55 40 1
55 41 38
55 42 24
55 43 13
55 44 38
55 45 5
55 46 58
55 47 7
55 48 11
55 49 26
55 50 52
55 51 11
55 52 52
55 53 25
55 54 33
56 0 36
56 1 37
56 2 7
56 3 13
56 4 44
56 5 36
56 6 48
56 7 23
56 8 47
56 9 29
56 10 43
56 11 31
56 12 24
56 13 33
56 14 23
56 15 18
56 16 34
56 17 42
56 18 21
56 19 24
56 20 37
56 21 36
56 22 38
56 23 33
56 24 40
56 25 44
56 26 13
56 27 12
56 28 3
56 29 11
56 30 16
56 31 26
56 32 37
56 33 11
56 34 5
56 35 33
56 36 47
56 37 53
56 38 46
56 39 40
56 40 51
56 41 56
56 42 22
56 43 14
56 44 56
56 45 43
56 46 47
56 47 11
56 48 27
56 49 19
56 50 37
56 51 26
56 52 7
56 53 41
56 54 8
56 55 35
57 0 58
57 1 33
57 2 35
57 3 14
57 4 26
57 5 55
57 6 50
57 7 13
57 8 4
57 9 19
57 10 50
57 11 38
57 12 7
57 13 8
57 14 37
57 15 43
57 16 4
57 17 41
57 18 49
57 19 33
57 20 51
57 21 47
57 22 30
57 23 16
57 24 23
57 25 4
57 26 27
57 27 35
57 28 45
57 29 21
57 30 46
57 31 21
57 32 54
57 33 34
57 34 23
57 35 43
57 36 53
57 37 23
57 38 10
57 39 4
57 40 5
57 41 17
57 42 29
57 43 42
57 44 39
57 45 46
57 46 27
57 47 9
57 48 19
57 49 8
57 50 11
57 51 24
57 52 28
57 53 42
57 54 59
57 55 25
57 56 41
58 0 38
58 1 2
58 2 52
58 3 30
58 4 48
58 5 59
58 6 55
58 7 4
58 8 2
58 9 1
58 10 23
58 11 43
58 12 60
58 13 34
58 14 37
58 15 51
58 16 29
58 17 14
58 18 8
58 19 44
58 20 38
58 21 30
58 22 38
58 23 42
58 24 42
58 25 12
58 26 56
58 27 17
58 28 12
58 29 53
58 30 6
58 31 4
58 32 30
58 33 33
58 34 38
58 35 21
58 36 22
58 37 23
58 38 39
58 39 49
58 40 51
58 41 27
58 42 24
58 43 51
58 44 40
58 45 29
58 46 20
58 47 25
58 48 51
58 49 15
58 50 50
58 51 8
58 52 23
58 53 11
58 54 18
58 55 28
58 56 9
58 57 1
59 0 58
59 1 56
59 2 11
59 3 54
59 4 54
59 5 40
59 6 23
59 7 9
59 8 57
59 9 5
59 10 55
59 11 37
59 12 33
59 13 60
59 14 3
59 15 2
59 16 47
59 17 51
59 18 10
59 19 21
59 20 57
59 21 39
59 22 15
59 23 38
59 24 39
59 25 57
59 26 57
59 27 53
59 28 8
59 29 54
59 30 3
59 31 10
59 32 18
59 33 4
59 34 10
59 35 42
59 36 49
59 37 50
59 38 39
59 39 51
59 40 2
59 41 15
59 42 16
59 43 17
59 44 41
59 45 3
59 46 6
59 47 29
59 48 47
59 49 42
59 50 35
59 51 35
59 52 53
59 53 8
59 54 54
59 55 16
59 56 46
59 57 24
59 58 53
60 0 55
60 1 23
60 2 12
60 3 12
60 4 31
60 5 12
60 6 17
60 7 39
60 8 54
60 9 44
60 10 5
60 11 43
60 12 24
60 13 37
60 14 5
60 15 34
60 16 52
60 17 35
60 18 42
60 19 24
60 20 43
60 21 17
60 22 48
60 23 41
60 24 26
60 25 34
60 26 5
60 27 46
60 28 46
60 29 6
60 30 55
60 31 48
60 32 25
60 33 58
60 34 27
60 35 56
60 36 2
60 37 48
60 38 60
60 39 33
60 40 52
60 41 48
60 42 2
60 43 28
60 44 12
60 45 26
60 46 21
60 47 45
60 48 38
60 49 40
60 50 4
60 51 40
60 52 48
60 53 13
60 54 51
60 55 23
60 56 54
60 57 58
60 58 13
60 59 59
61 0 19
61 1 44
61 2 51
61 3 46
61 4 14
61 5 54
61 6 27
61 7 41
61 8 51
61 9 27
61 10 23
61 11 35
61 12 43
61 13 52
61 14 18
61 15 36
61 16 15
61 17 31
61 18 17
61 19 54
61 20 32
61 21 38
61 22 25
61 23 19
61 24 52
61 25 59
61 26 42
61 27 3
61 28 38
61 29 54
61 30 43
61 31 14
61 32 40
61 33 19
61 34 33
61 35 45
61 36 52
61 37 40
61 38 42
61 39 13
61 40 3
61 41 11
61 42 15
61 43 41
61 44 8
61 45 50
61 46 19
61 47 9
61 48 60
61 49 42
61 50 31
61 51 38
61 52 5
61 53 51
61 54 10
61 55 53
61 56 58
61 57 51
61 58 21
61 59 3
61 60 53
62 0 30
62 1 6
62 2 10
62 3 59
62 4 26
62 5 9
62 6 55
62 7 23
62 8 38
62 9 15
62 10 11
62 11 40
62 12 5
62 13 59
62 14 25
62 15 21
62 16 7
62 17 24
62 18 47
62 19 20
62 20 57
62 21 57
62 22 36
62 23 20
62 24 47
62 25 44
62 26 25
62 27 2
62 28 21
62 29 48
62 30 59
62 31 21
62 32 34
62 33 8
62 34 51
62 35 47
62 36 4
62 37 33
62 38 11
62 39 15
62 40 29
62 41 37
62 42 25
62 43 30
62 44 45
62 45 25
62 46 22
62 47 2
62 48 3
62 49 29
62 50 16
62 51 21
62 52 52
62 53 40
62 54 48
62 55 41
62 56 27
62 57 28
62 58 57
62 59 46
62 60 41
62 61 56
63 0 16
63 1 5
63 2 60
63 3 42
63 4 5
63 5 47
63 6 58
63 7 16
63 8 32
63 9 19
63 10 35
63 11 44
63 12 25
63 13 5
63 14 37
63 15 44
63 16 33
63 17 8
63 18 14
63 19 10
63 20 48
63 21 23
63 22 57
63 23 53
63 24 2
63 25 54
63 26 41
63 27 34
63 28 46
63 29 31
63 30 9
63 31 30
63 32 25
63 33 28
63 34 15
63 35 47
63 36 53
63 37 54
63 38 4
63 39 23
63 40 24
63 41 41
63 42 26
63 43 45
63 44 42
63 45 37
63 46 24
63 47 27
63 48 52
63 49 54
63 50 60
63 51 33
63 52 34
63 53 52
63 54 10
63 55 46
63 56 16
63 57 55
63 58 43
63 59 56
63 60 59
63 61 14
63 62 31
64 0 56
64 1 29
64 2 3
64 3 38
64 4 21
64 5 52
64 6 4
64 7 55
64 8 25
64 9 9
64 10 39
64 11 3
64 12 5
64 13 15
64 14 45
64 15 32
64 16 11
64 17 24
64 18 41
64 19 47
64 20 8
64 21 58
64 22 15
64 23 13
64 24 25
64 25 5
64 26 49
64 27 26
64 28 10
64 29 49
64 30 21
64 31 28
64 32 21
64 33 30
64 34 29
64 35 49
64 36 11
64 37 39
64 38 12
64 39 60
64 40 16
64 41 27
64 42 32
64 43 20
64 44 12
64 45 54
64 46 39
64 47 33
64 48 43
64 49 57
64 50 54
64 51 35
64 52 45
64 53 9
64 54 53
64 55 3
64 56 44
64 57 6
64 58 41
64 59 54
64 60 22
64 61 3
64 62 39
64 63 58
65 0 21
65 1 51
65 2 25
65 3 11
65 4 52
65 5 14
65 6 3
65 7 16
65 8 5
65 9 42
65 10 41
65 11 33
65 12 35
65 13 45
65 14 47
65 15 29
65 16 47
65 17 19
65 18 55
65 19 16
65 20 28
65 21 23
65 22 55
65 23 10
65 24 22
65 25 19
65 26 34
65 27 40
65 28 8
65 29 25
65 30 17
65 31 41
65 32 2
65 33 39
65 34 25
65 35 15
65 36 42
65 37 27
65 38 11
65 39 28
65 40 12
65 41 20
65 42 18
65 43 41
65 44 40
65 45 33
65 46 51
65 47 15
65 48 60
65 49 49
65 50 58
65 51 5
65 52 31
65 53 25
65 54 15
65 55 7
65 56 34
65 57 32
65 58 20
65 59 15
65 60 24
65 61 4
65 62 32
65 63 27
65 64 50
66 0 13
66 1 51
66 2 5
66 3 32
66 4 23
66 5 48
66 6 31
66 7 2
66 8 25
66 9 23
66 10 52
66 11 38
66 12 7
66 13 46
66 14 6
66 15 50
66 16 38
66 17 3
66 18 2
66 19 7
66 20 56
66 21 26
66 22 52
66 23 8
66 24 49
66 25 35
66 26 31
66 27 23
66 28 52
66 29 49
66 30 33
66 31 25
66 32 27
66 33 51
66 34 39
66 35 44
66 36 41
66 37 44
66 38 60
66 39 59
66 40 50
66 41 40
66 42 47
66 43 26
66 44 46
66 45 26
66 46 2
66 47 26
66 48 12
66 49 50
66 50 12
66 51 30
66 52 59
66 53 31
66 54 12
66 55 16
66 56 51
66 57 36
66 58 3
66 59 29
66 60 55
66 61 36
66 62 15
66 63 40
66 64 12
66 65 6
67 0 21
67 1 4
67 2 5
67 3 17
67 4 31
67 5 19
67 6 54
67 7 25
67 8 3
67 9 39
67 10 43
67 11 47
67 12 9
67 13 36
67 14 39
67 15 36
67 16 18
67 17 42
67 18 19
67 19 1
67 20 7
67 21 34
67 22 20
67 23 13
67 24 37
67 25 10
67 26 51
67 27 14
67 28 6
67 29 29
67 30 45
67 31 54
67 32 16
67 33 36
67 34 44
67 35 8
67 36 5
67 37 8
67 38 36
67 39 29
67 40 40
67 41 23
67 42 25
67 43 36
67 44 5
67 45 36
67 46 14
67 47 5
67 48 58
67 49 33
67 50 50
67 51 47
67 52 17
67 53 50
67 54 26
67 55 42
67 56 32
67 57 55
67 58 20
67 59 53
67 60 25
67 61 47
67 62 7
67 63 56
67 64 41
67 65 39
67 66 38
68 0 18
68 1 37
68 2 14
68 3 7
68 4 6
68 5 23
68 6 11
68 7 4
68 8 27
68 9 26
68 10 11
68 11 40
68 12 25
68 13 13
68 14 32
68 15 59
68 16 57
68 17 24
68 18 4
68 19 10
68 20 44
68 21 6
68 22 4
68 23 27
68 24 29
68 25 40
68 26 21
68 27 36
68 28 16
68 29 27
68 30 37
68 31 3
68 32 58
68 33 11
68 34 59
68 35 9
68 36 49
68 37 9
68 38 57
68 39 57
68 40 34
68 41 7
68 42 25
68 43 35
68 44 2
68 45 50
68 46 44
68 47 10
68 48 47
68 49 36
68 50 19
68 51 47
68 52 15
68 53 58
68 54 49
68 55 3
68 56 35
68 57 50
68 58 45
68 59 1
68 60 12
68 61 23
68 62 57
68 63 52
68 64 30
68 65 35
68 66 20
68 67 22
69 0 26
69 1 26
69 2 50
69 3 52
69 4 48
69 5 49
69 6 37
69 7 56
69 8 36
69 9 46
69 10 41
69 11 10
69 12 40
69 13 53
69 14 35
69 15 14
69 16 21
69 17 37
69 18 1
69 19 12
69 20 18
69 21 55
69 22 17
69 23 16
69 24 11
69 25 42
69 26 2
69 27 6
69 28 15
69 29 39
69 30 36
69 31 48
69 32 52
69 33 46
69 34 10
69 35 32
69 36 31
69 37 23
69 38 15
69 39 22
69 40 52
69 41 35
69 42 20
69 43 31
69 44 54
69 45 31
69 46 46
69 47 30
69 48 16
69 49 39
69 50 9
69 51 37
69 52 11
69 53 14
69 54 49
69 55 39
69 56 45
69 57 23
69 58 4
69 59 10
69 60 28
69 61 40
69 62 29
69 63 16
69 64 5
69 65 60
69 66 19
69 67 59
69 68 26
